5
230 198 387  932
493 105 316  447
206 85 172  834
432 41 216  589
463 348 403  768
20
280 230 256  468 30
107 357 264  86 465
184 369 497  141 69
486 292 214  498 160
69 347 65  36 243
150 284 114  386 110
41 344 422  307 35
288 309 436  133 407
63 349 122  419 491
45 232 466  477 427
311 201 307  293 298
134 282 57  217 128
71 453 470  125 221
102 218 411  316 304
80 413 92  449 249
241 148 460  185 396
441 71 293  70 65
488 181 262  360 169
497 338 68  268 109
17 443 381  465 465
